objective value:                                12172
t_x_0                                               1 	(obj:16)
t_x_2                                               1 	(obj:54)
t_x_3                                               1 	(obj:19)
t_x_4                                               1 	(obj:26)
t_x_5                                               1 	(obj:16)
t_x_7                                               1 	(obj:40)
t_x_9                                               1 	(obj:7)
t_x_12                                              1 	(obj:22)
t_x_17                                              1 	(obj:7)
t_x_19                                              1 	(obj:63)
t_x_24                                              1 	(obj:8)
t_x_26                                              1 	(obj:15)
t_x_29                                              1 	(obj:1)
t_x_30                                              1 	(obj:54)
t_x_31                                              1 	(obj:73)
t_x_33                                              1 	(obj:47)
t_x_35                                              1 	(obj:10)
t_x_36                                              1 	(obj:5)
t_x_39                                              1 	(obj:10)
t_x_42                                              1 	(obj:29)
t_x_43                                              1 	(obj:50)
t_x_44                                              1 	(obj:10)
t_x_49                                              1 	(obj:7)
t_x_52                                              1 	(obj:55)
t_x_53                                              1 	(obj:32)
t_x_54                                              1 	(obj:30)
t_x_56                                              1 	(obj:9)
t_x_57                                              1 	(obj:20)
t_x_60                                              1 	(obj:48)
t_x_61                                              1 	(obj:12)
t_x_62                                              1 	(obj:12)
t_x_65                                              1 	(obj:15)
t_x_67                                              1 	(obj:8)
t_x_70                                              1 	(obj:2)
t_x_71                                              1 	(obj:21)
t_x_73                                              1 	(obj:14)
t_x_77                                              1 	(obj:52)
t_x_78                                              1 	(obj:30)
t_x_81                                              1 	(obj:4)
t_x_83                                              1 	(obj:18)
t_x_87                                              1 	(obj:7)
t_x_89                                              1 	(obj:46)
t_x_98                                              1 	(obj:26)
t_x_99                                              1 	(obj:1)
t_x_102                                             1 	(obj:11)
t_x_105                                             1 	(obj:30)
t_x_110                                             1 	(obj:0)
t_x_117                                             1 	(obj:2)
t_x_121                                             1 	(obj:2)
t_x_122                                             1 	(obj:16)
t_x_123                                             1 	(obj:4)
t_x_125                                             1 	(obj:58)
t_x_127                                             1 	(obj:25)
t_x_128                                             1 	(obj:15)
t_x_130                                             1 	(obj:8)
t_x_132                                             1 	(obj:43)
t_x_133                                             1 	(obj:18)
t_x_139                                             1 	(obj:2)
t_x_141                                             1 	(obj:0)
t_x_142                                             1 	(obj:7)
t_x_144                                             1 	(obj:0)
t_x_150                                             1 	(obj:47)
t_x_152                                             1 	(obj:20)
t_x_154                                             1 	(obj:10)
t_x_155                                             1 	(obj:29)
t_x_163                                             1 	(obj:24)
t_x_169                                             1 	(obj:22)
t_x_171                                             1 	(obj:34)
t_x_172                                             1 	(obj:15)
t_x_175                                             1 	(obj:13)
t_x_177                                             1 	(obj:5)
t_x_186                                             1 	(obj:60)
t_x_189                                             1 	(obj:16)
t_x_192                                             1 	(obj:50)
t_x_193                                             1 	(obj:0)
t_x_197                                             1 	(obj:28)
t_x_200                                             1 	(obj:24)
t_x_206                                             1 	(obj:48)
t_x_208                                             1 	(obj:23)
t_x_209                                             1 	(obj:4)
t_x_210                                             1 	(obj:12)
t_x_220                                             1 	(obj:1)
t_x_221                                             1 	(obj:40)
t_x_224                                             1 	(obj:28)
t_x_225                                             1 	(obj:20)
t_x_226                                             1 	(obj:3)
t_x_230                                             1 	(obj:45)
t_x_237                                             1 	(obj:18)
t_x_238                                             1 	(obj:16)
t_x_240                                             1 	(obj:31)
t_x_241                                             1 	(obj:5)
t_x_245                                             1 	(obj:5)
t_x_246                                             1 	(obj:4)
t_x_247                                             1 	(obj:93)
t_x_256                                             1 	(obj:24)
t_x_258                                             1 	(obj:14)
t_x_259                                             1 	(obj:26)
t_x_265                                             1 	(obj:4)
t_x_275                                             1 	(obj:1)
t_x_279                                             1 	(obj:34)
t_x_281                                             1 	(obj:19)
t_x_284                                             1 	(obj:11)
t_x_286                                             1 	(obj:8)
t_x_287                                             1 	(obj:0)
t_x_296                                             1 	(obj:22)
t_x_299                                             1 	(obj:23)
t_x_305                                             1 	(obj:22)
t_x_306                                             1 	(obj:2)
t_x_307                                             1 	(obj:5)
t_x_310                                             1 	(obj:31)
t_x_312                                             1 	(obj:39)
t_x_314                                             1 	(obj:34)
t_x_315                                             1 	(obj:17)
t_x_319                                             1 	(obj:9)
t_x_325                                             1 	(obj:10)
t_x_326                                             1 	(obj:0)
t_x_328                                             1 	(obj:8)
t_x_332                                             1 	(obj:26)
t_x_337                                             1 	(obj:16)
t_x_339                                             1 	(obj:45)
t_x_340                                             1 	(obj:32)
t_x_347                                             1 	(obj:9)
t_x_351                                             1 	(obj:6)
t_x_352                                             1 	(obj:20)
t_x_354                                             1 	(obj:24)
t_x_355                                             1 	(obj:24)
t_x_356                                             1 	(obj:11)
t_x_364                                             1 	(obj:19)
t_x_365                                             1 	(obj:2)
t_x_368                                             1 	(obj:16)
t_x_369                                             1 	(obj:12)
t_x_372                                             1 	(obj:24)
t_x_374                                             1 	(obj:50)
t_x_376                                             1 	(obj:19)
t_x_377                                             1 	(obj:16)
t_x_378                                             1 	(obj:18)
t_x_380                                             1 	(obj:9)
t_x_384                                             1 	(obj:5)
t_x_385                                             1 	(obj:1)
t_x_386                                             1 	(obj:0)
t_x_389                                             1 	(obj:17)
t_x_395                                             1 	(obj:33)
t_x_398                                             1 	(obj:3)
t_x_402                                             1 	(obj:0)
t_x_410                                             1 	(obj:43)
t_x_414                                             1 	(obj:47)
t_x_421                                             1 	(obj:24)
t_x_422                                             1 	(obj:53)
t_x_424                                             1 	(obj:17)
t_x_428                                             1 	(obj:28)
t_x_432                                             1 	(obj:3)
t_x_435                                             1 	(obj:33)
t_x_436                                             1 	(obj:44)
t_x_440                                             1 	(obj:0)
t_x_448                                             1 	(obj:7)
t_x_450                                             1 	(obj:24)
t_x_452                                             1 	(obj:1)
t_x_453                                             1 	(obj:34)
t_x_455                                             1 	(obj:12)
t_x_457                                             1 	(obj:24)
t_x_458                                             1 	(obj:4)
t_x_460                                             1 	(obj:19)
t_x_467                                             1 	(obj:34)
t_x_469                                             1 	(obj:8)
t_x_475                                             1 	(obj:25)
t_x_477                                             1 	(obj:25)
t_x_478                                             1 	(obj:23)
t_x_481                                             1 	(obj:1)
t_x_482                                             1 	(obj:26)
t_x_487                                             1 	(obj:12)
t_x_491                                             1 	(obj:51)
t_x_497                                             1 	(obj:61)
t_x_500                                             1 	(obj:16)
t_x_503                                             1 	(obj:5)
t_x_506                                             1 	(obj:0)
t_x_510                                             1 	(obj:35)
t_x_512                                             1 	(obj:5)
t_x_518                                             1 	(obj:20)
t_x_519                                             1 	(obj:34)
t_x_523                                             1 	(obj:4)
t_x_529                                             1 	(obj:0)
t_x_537                                             1 	(obj:29)
t_x_539                                             1 	(obj:23)
t_x_540                                             1 	(obj:2)
t_x_543                                             1 	(obj:18)
t_x_544                                             1 	(obj:20)
t_x_548                                             1 	(obj:30)
t_x_554                                             1 	(obj:24)
t_x_556                                             1 	(obj:22)
t_x_567                                             1 	(obj:33)
t_x_570                                             1 	(obj:0)
t_x_572                                             1 	(obj:47)
t_x_575                                             1 	(obj:20)
t_x_586                                             1 	(obj:20)
t_x_587                                             1 	(obj:26)
t_x_589                                             1 	(obj:20)
t_x_590                                             1 	(obj:3)
t_x_595                                             1 	(obj:11)
t_x_596                                             1 	(obj:10)
t_x_599                                             1 	(obj:29)
t_x_601                                             1 	(obj:29)
t_x_606                                             1 	(obj:58)
t_x_608                                             1 	(obj:31)
t_x_609                                             1 	(obj:54)
t_x_611                                             1 	(obj:8)
t_x_615                                             1 	(obj:11)
t_x_617                                             1 	(obj:5)
t_x_619                                             1 	(obj:24)
t_x_621                                             1 	(obj:55)
t_x_623                                             1 	(obj:1)
t_x_624                                             1 	(obj:29)
t_x_625                                             1 	(obj:12)
t_x_626                                             1 	(obj:43)
t_x_628                                             1 	(obj:4)
t_x_629                                             1 	(obj:2)
t_x_632                                             1 	(obj:25)
t_x_639                                             1 	(obj:12)
t_x_644                                             1 	(obj:30)
t_x_647                                             1 	(obj:32)
t_x_656                                             1 	(obj:25)
t_x_657                                             1 	(obj:11)
t_x_658                                             1 	(obj:56)
t_x_661                                             1 	(obj:8)
t_x_673                                             1 	(obj:2)
t_x_677                                             1 	(obj:29)
t_x_683                                             1 	(obj:34)
t_x_686                                             1 	(obj:9)
t_x_688                                             1 	(obj:14)
t_x_692                                             1 	(obj:2)
t_x_696                                             1 	(obj:32)
t_x_703                                             1 	(obj:4)
t_x_704                                             1 	(obj:26)
t_x_713                                             1 	(obj:28)
t_x_714                                             1 	(obj:30)
t_x_718                                             1 	(obj:19)
t_x_719                                             1 	(obj:16)
t_x_731                                             1 	(obj:38)
t_x_735                                             1 	(obj:3)
t_x_736                                             1 	(obj:42)
t_x_741                                             1 	(obj:35)
t_x_743                                             1 	(obj:40)
t_x_745                                             1 	(obj:24)
t_x_746                                             1 	(obj:5)
t_x_753                                             1 	(obj:45)
t_x_756                                             1 	(obj:10)
t_x_760                                             1 	(obj:6)
t_x_764                                             1 	(obj:18)
t_x_768                                             1 	(obj:44)
t_x_776                                             1 	(obj:7)
t_x_778                                             1 	(obj:14)
t_x_779                                             1 	(obj:32)
t_x_784                                             1 	(obj:8)
t_x_787                                             1 	(obj:9)
t_x_788                                             1 	(obj:31)
t_x_789                                             1 	(obj:9)
t_x_790                                             1 	(obj:4)
t_x_791                                             1 	(obj:9)
t_x_795                                             1 	(obj:25)
t_x_796                                             1 	(obj:32)
t_x_800                                             1 	(obj:27)
t_x_805                                             1 	(obj:2)
t_x_806                                             1 	(obj:0)
t_x_807                                             1 	(obj:11)
t_x_808                                             1 	(obj:90)
t_x_817                                             1 	(obj:13)
t_x_818                                             1 	(obj:19)
t_x_820                                             1 	(obj:17)
t_x_822                                             1 	(obj:23)
t_x_823                                             1 	(obj:17)
t_x_829                                             1 	(obj:3)
t_x_830                                             1 	(obj:29)
t_x_831                                             1 	(obj:13)
t_x_834                                             1 	(obj:8)
t_x_838                                             1 	(obj:21)
t_x_841                                             1 	(obj:25)
t_x_845                                             1 	(obj:30)
t_x_847                                             1 	(obj:48)
t_x_848                                             1 	(obj:32)
t_x_850                                             1 	(obj:52)
t_x_852                                             1 	(obj:20)
t_x_855                                             1 	(obj:40)
t_x_857                                             1 	(obj:16)
t_x_859                                             1 	(obj:12)
t_x_862                                             1 	(obj:16)
t_x_863                                             1 	(obj:10)
t_x_864                                             1 	(obj:51)
t_x_867                                             1 	(obj:33)
t_x_869                                             1 	(obj:36)
t_x_872                                             1 	(obj:16)
t_x_881                                             1 	(obj:2)
t_x_886                                             1 	(obj:6)
t_x_887                                             1 	(obj:6)
t_x_888                                             1 	(obj:17)
t_x_891                                             1 	(obj:48)
t_x_892                                             1 	(obj:14)
t_x_894                                             1 	(obj:26)
t_x_900                                             1 	(obj:66)
t_x_905                                             1 	(obj:4)
t_x_908                                             1 	(obj:35)
t_x_911                                             1 	(obj:17)
t_x_913                                             1 	(obj:8)
t_x_914                                             1 	(obj:12)
t_x_920                                             1 	(obj:22)
t_x_930                                             1 	(obj:3)
t_x_931                                             1 	(obj:10)
t_x_933                                             1 	(obj:0)
t_x_943                                             1 	(obj:3)
t_x_949                                             1 	(obj:23)
t_x_950                                             1 	(obj:11)
t_x_954                                             1 	(obj:5)
t_x_958                                             1 	(obj:71)
t_x_959                                             1 	(obj:5)
t_x_971                                             1 	(obj:42)
t_x_972                                             1 	(obj:0)
t_x_977                                             1 	(obj:23)
t_x_984                                             1 	(obj:22)
t_x_987                                             1 	(obj:18)
t_x_988                                             1 	(obj:29)
t_x_991                                             1 	(obj:1)
t_x_999                                             1 	(obj:49)
t_x_1000                                            1 	(obj:63)
t_x_1002                                            1 	(obj:37)
t_x_1003                                            1 	(obj:30)
t_x_1004                                            1 	(obj:17)
t_x_1005                                            1 	(obj:39)
t_x_1011                                            1 	(obj:26)
t_x_1016                                            1 	(obj:64)
t_x_1019                                            1 	(obj:2)
t_x_1026                                            1 	(obj:4)
t_x_1030                                            1 	(obj:19)
t_x_1031                                            1 	(obj:38)
t_x_1038                                            1 	(obj:2)
t_x_1050                                            1 	(obj:20)
t_x_1059                                            1 	(obj:9)
t_x_1060                                            1 	(obj:17)
t_x_1062                                            1 	(obj:0)
t_x_1066                                            1 	(obj:1)
t_x_1070                                            1 	(obj:7)
t_x_1076                                            1 	(obj:34)
t_x_1078                                            1 	(obj:15)
t_x_1082                                            1 	(obj:2)
t_x_1083                                            1 	(obj:35)
t_x_1086                                            1 	(obj:4)
t_x_1087                                            1 	(obj:27)
t_x_1088                                            1 	(obj:16)
t_x_1089                                            1 	(obj:9)
t_x_1091                                            1 	(obj:15)
t_x_1092                                            1 	(obj:9)
t_x_1093                                            1 	(obj:19)
t_x_1096                                            1 	(obj:13)
t_x_1098                                            1 	(obj:20)
t_x_1108                                            1 	(obj:15)
t_x_1114                                            1 	(obj:19)
t_x_1119                                            1 	(obj:14)
t_x_1120                                            1 	(obj:5)
t_x_1121                                            1 	(obj:5)
t_x_1124                                            1 	(obj:25)
t_x_1125                                            1 	(obj:0)
t_x_1130                                            1 	(obj:19)
t_x_1132                                            1 	(obj:37)
t_x_1135                                            1 	(obj:0)
t_x_1137                                            1 	(obj:27)
t_x_1143                                            1 	(obj:3)
t_x_1146                                            1 	(obj:13)
t_x_1147                                            1 	(obj:26)
t_x_1148                                            1 	(obj:16)
t_x_1151                                            1 	(obj:43)
t_x_1153                                            1 	(obj:4)
t_x_1158                                            1 	(obj:6)
t_x_1161                                            1 	(obj:4)
t_x_1162                                            1 	(obj:0)
t_x_1166                                            1 	(obj:37)
t_x_1175                                            1 	(obj:14)
t_x_1181                                            1 	(obj:9)
t_x_1184                                            1 	(obj:22)
t_x_1188                                            1 	(obj:16)
t_x_1195                                            1 	(obj:24)
t_x_1198                                            1 	(obj:11)
t_x_1208                                            1 	(obj:17)
t_x_1212                                            1 	(obj:6)
t_x_1213                                            1 	(obj:2)
t_x_1216                                            1 	(obj:14)
t_x_1219                                            1 	(obj:41)
t_x_1221                                            1 	(obj:20)
t_x_1223                                            1 	(obj:5)
t_x_1229                                            1 	(obj:15)
t_x_1238                                            1 	(obj:7)
t_x_1246                                            1 	(obj:17)
t_x_1251                                            1 	(obj:18)
t_x_1252                                            1 	(obj:0)
t_x_1254                                            1 	(obj:26)
t_x_1260                                            1 	(obj:44)
t_x_1261                                            1 	(obj:10)
t_x_1265                                            1 	(obj:21)
t_x_1270                                            1 	(obj:43)
t_x_1273                                            1 	(obj:35)
t_x_1278                                            1 	(obj:47)
t_x_1282                                            1 	(obj:38)
t_x_1289                                            1 	(obj:25)
t_x_1298                                            1 	(obj:12)
t_x_1299                                            1 	(obj:2)
t_x_1302                                            1 	(obj:18)
t_x_1305                                            1 	(obj:41)
t_x_1307                                            1 	(obj:1)
t_x_1309                                            1 	(obj:24)
t_x_1313                                            1 	(obj:9)
t_x_1314                                            1 	(obj:12)
t_x_1317                                            1 	(obj:20)
t_x_1318                                            1 	(obj:4)
t_x_1319                                            1 	(obj:21)
t_x_1321                                            1 	(obj:5)
t_x_1323                                            1 	(obj:40)
t_x_1325                                            1 	(obj:40)
t_x_1328                                            1 	(obj:24)
t_x_1331                                            1 	(obj:13)
t_x_1335                                            1 	(obj:20)
t_x_1338                                            1 	(obj:34)
t_x_1339                                            1 	(obj:16)
t_x_1342                                            1 	(obj:23)
t_x_1350                                            1 	(obj:21)
t_x_1353                                            1 	(obj:22)
t_x_1360                                            1 	(obj:32)
t_x_1364                                            1 	(obj:12)
t_x_1369                                            1 	(obj:59)
t_x_1371                                            1 	(obj:8)
t_x_1373                                            1 	(obj:1)
t_x_1376                                            1 	(obj:8)
t_x_1378                                            1 	(obj:3)
t_x_1380                                            1 	(obj:1)
t_x_1382                                            1 	(obj:17)
t_x_1383                                            1 	(obj:3)
t_x_1387                                            1 	(obj:22)
t_x_1388                                            1 	(obj:22)
t_x_1392                                            1 	(obj:85)
t_x_1393                                            1 	(obj:20)
t_x_1394                                            1 	(obj:14)
t_x_1395                                            1 	(obj:36)
t_x_1396                                            1 	(obj:20)
t_x_1403                                            1 	(obj:1)
t_x_1407                                            1 	(obj:23)
t_x_1420                                            1 	(obj:2)
t_x_1423                                            1 	(obj:4)
t_x_1430                                            1 	(obj:7)
t_x_1435                                            1 	(obj:32)
t_x_1439                                            1 	(obj:7)
t_x_1441                                            1 	(obj:27)
t_x_1445                                            1 	(obj:44)
t_x_1446                                            1 	(obj:18)
t_x_1447                                            1 	(obj:25)
t_x_1454                                            1 	(obj:2)
t_x_1461                                            1 	(obj:10)
t_x_1463                                            1 	(obj:36)
t_x_1465                                            1 	(obj:10)
t_x_1468                                            1 	(obj:26)
t_x_1475                                            1 	(obj:13)
t_x_1479                                            1 	(obj:27)
t_x_1481                                            1 	(obj:17)
t_x_1482                                            1 	(obj:52)
t_x_1487                                            1 	(obj:10)
t_x_1491                                            1 	(obj:13)
t_x_1494                                            1 	(obj:18)
t_x_1496                                            1 	(obj:9)
t_x_1499                                            1 	(obj:6)
t_x_1502                                            1 	(obj:14)
t_x_1510                                            1 	(obj:4)
t_x_1511                                            1 	(obj:9)
t_x_1512                                            1 	(obj:15)
t_x_1514                                            1 	(obj:10)
t_x_1515                                            1 	(obj:16)
t_x_1518                                            1 	(obj:8)
t_x_1519                                            1 	(obj:21)
t_x_1520                                            1 	(obj:43)
t_x_1523                                            1 	(obj:2)
t_x_1529                                            1 	(obj:20)
t_x_1531                                            1 	(obj:13)
t_x_1532                                            1 	(obj:16)
t_x_1534                                            1 	(obj:42)
t_x_1537                                            1 	(obj:22)
t_x_1539                                            1 	(obj:32)
t_x_1541                                            1 	(obj:25)
t_x_1543                                            1 	(obj:49)
t_x_1547                                            1 	(obj:29)
t_x_1548                                            1 	(obj:3)
t_x_1549                                            1 	(obj:6)
t_x_1557                                            1 	(obj:29)
t_x_1558                                            1 	(obj:17)
t_x_1562                                            1 	(obj:30)
t_x_1565                                            1 	(obj:24)
t_x_1567                                            1 	(obj:24)
t_x_1572                                            1 	(obj:16)
t_x_1577                                            1 	(obj:5)
t_x_1586                                            1 	(obj:5)
t_x_1587                                            1 	(obj:39)
t_x_1588                                            1 	(obj:13)
t_x_1589                                            1 	(obj:3)
t_x_1590                                            1 	(obj:8)
t_x_1595                                            1 	(obj:14)
t_x_1596                                            1 	(obj:33)
t_x_1598                                            1 	(obj:38)
t_x_1601                                            1 	(obj:8)
t_x_1609                                            1 	(obj:39)
t_x_1610                                            1 	(obj:17)
t_x_1613                                            1 	(obj:22)
t_x_1617                                            1 	(obj:23)
t_x_1619                                            1 	(obj:0)
t_x_1625                                            1 	(obj:11)
t_x_1629                                            1 	(obj:21)
t_x_1630                                            1 	(obj:40)
t_x_1632                                            1 	(obj:7)
t_x_1635                                            1 	(obj:5)
t_x_1636                                            1 	(obj:10)
t_x_1637                                            1 	(obj:17)
t_x_1641                                            1 	(obj:9)
t_x_1643                                            1 	(obj:23)
t_x_1645                                            1 	(obj:5)
t_x_1652                                            1 	(obj:10)
t_x_1654                                            1 	(obj:17)
t_x_1656                                            1 	(obj:27)
t_x_1660                                            1 	(obj:34)
t_x_1662                                            1 	(obj:2)
t_x_1666                                            1 	(obj:16)
t_x_1675                                            1 	(obj:5)
t_x_1676                                            1 	(obj:5)
t_x_1683                                            1 	(obj:19)
t_x_1690                                            1 	(obj:7)
t_x_1697                                            1 	(obj:16)
t_x_1700                                            1 	(obj:23)
t_x_1718                                            1 	(obj:9)
t_x_1730                                            1 	(obj:12)
t_x_1737                                            1 	(obj:44)
t_x_1740                                            1 	(obj:6)
t_x_1745                                            1 	(obj:9)
t_x_1747                                            1 	(obj:10)
t_x_1751                                            1 	(obj:23)
t_x_1752                                            1 	(obj:7)
t_x_1753                                            1 	(obj:15)
t_x_1762                                            1 	(obj:44)
t_x_1763                                            1 	(obj:29)
t_x_1765                                            1 	(obj:47)
t_x_1769                                            1 	(obj:56)
t_x_1771                                            1 	(obj:16)
t_x_1775                                            1 	(obj:5)
t_x_1778                                            1 	(obj:25)
t_x_1780                                            1 	(obj:4)
t_x_1781                                            1 	(obj:1)
t_x_1782                                            1 	(obj:35)
t_x_1785                                            1 	(obj:6)
t_x_1787                                            1 	(obj:3)
t_x_1792                                            1 	(obj:3)
t_x_1793                                            1 	(obj:28)
t_x_1794                                            1 	(obj:13)
t_x_1795                                            1 	(obj:49)
t_x_1799                                            1 	(obj:9)
t_x_1801                                            1 	(obj:23)
t_x_1802                                            1 	(obj:50)
t_x_1803                                            1 	(obj:27)
t_x_1804                                            1 	(obj:17)
t_x_1810                                            1 	(obj:11)
t_x_1818                                            1 	(obj:31)
t_x_1823                                            1 	(obj:14)
t_x_1829                                            1 	(obj:46)
t_x_1834                                            1 	(obj:28)
t_x_1837                                            1 	(obj:3)
t_x_1840                                            1 	(obj:13)
t_x_1842                                            1 	(obj:12)
t_x_1843                                            1 	(obj:5)
t_x_1855                                            1 	(obj:11)
t_x_1859                                            1 	(obj:4)
t_x_1860                                            1 	(obj:3)
t_x_1862                                            1 	(obj:14)
t_x_1864                                            1 	(obj:36)
t_x_1865                                            1 	(obj:25)
t_x_1868                                            1 	(obj:17)
t_x_1869                                            1 	(obj:23)
t_x_1873                                            1 	(obj:16)
t_x_1874                                            1 	(obj:27)
t_x_1877                                            1 	(obj:24)
t_x_1878                                            1 	(obj:49)
t_x_1882                                            1 	(obj:1)
t_x_1886                                            1 	(obj:8)
t_x_1887                                            1 	(obj:3)
t_x_1894                                            1 	(obj:65)
t_x_1898                                            1 	(obj:24)
t_x_1901                                            1 	(obj:22)
t_x_1904                                            1 	(obj:2)
t_x_1911                                            1 	(obj:20)
t_x_1914                                            1 	(obj:3)
t_x_1919                                            1 	(obj:4)
t_x_1920                                            1 	(obj:5)
t_x_1922                                            1 	(obj:31)
t_x_1923                                            1 	(obj:48)
t_x_1938                                            1 	(obj:16)
t_x_1944                                            1 	(obj:3)
t_x_1946                                            1 	(obj:2)
t_x_1948                                            1 	(obj:75)
t_x_1951                                            1 	(obj:13)
t_x_1952                                            1 	(obj:26)
t_x_1960                                            1 	(obj:2)
t_x_1961                                            1 	(obj:17)
t_x_1963                                            1 	(obj:9)
t_x_1969                                            1 	(obj:4)
t_x_1974                                            1 	(obj:11)
t_x_1977                                            1 	(obj:10)
t_x_1978                                            1 	(obj:25)
t_x_1988                                            1 	(obj:21)
t_x_1991                                            1 	(obj:12)
t_x_1993                                            1 	(obj:7)
t_x_1995                                            1 	(obj:27)
t_x_1997                                            1 	(obj:27)
t_x_1998                                            1 	(obj:25)
t_x_1999                                            1 	(obj:8)
